Counters = 8;
Buttons = 9;
b = [61, 38, 80, 61, 68, 60, 42, 41];
A = [|
1, 1, 1, 0, 0, 0, 0, 0, 1|
1, 1, 0, 0, 0, 0, 1, 0, 0|
1, 1, 1, 0, 1, 1, 1, 0, 0|
1, 1, 1, 1, 0, 1, 1, 0, 0|
1, 0, 0, 1, 0, 0, 1, 1, 1|
0, 1, 1, 0, 1, 1, 1, 0, 0|
0, 0, 0, 1, 0, 1, 0, 1, 1|
0, 1, 1, 0, 0, 0, 0, 0, 1|];
